non_linear/5K2L0M1.opb
* #variable= 10 #constraint= 25 #product= 60 sizeproduct= 10
min: ;
-0 x1 +1 x1 x2 x5 +1 x1 x3 x6 +1 x1 x4 x7 = 0;
+1 x1 +1 x2 x5 -1 x1 x2 x5 +1 x3 x6 -1 x1 x3 x6 +1 x4 x7 -1 x1 x4 x7 = 1;
-0 x2 +1 x2 x1 x5 +1 x2 x3 x8 +1 x2 x4 x9 = 0;
+1 x2 +1 x1 x5 -1 x2 x1 x5 +1 x3 x8 -1 x2 x3 x8 +1 x4 x9 -1 x2 x4 x9 = 1;
-0 x3 +1 x3 x1 x6 +1 x3 x2 x8 +1 x3 x4 x10 = 0;
+1 x3 +1 x1 x6 -1 x3 x1 x6 +1 x2 x8 -1 x3 x2 x8 +1 x4 x10 -1 x3 x4 x10 = 1;
-0 x4 +1 x4 x1 x7 +1 x4 x2 x9 +1 x4 x3 x10 = 0;
+1 x4 +1 x1 x7 -1 x4 x1 x7 +1 x2 x9 -1 x4 x2 x9 +1 x3 x10 -1 x4 x3 x10 = 1;
-0 x5 +1 x5 x1 x2 +1 x5 x6 x8 +1 x5 x7 x9 = 0;
+1 x5 +1 x1 x2 -1 x5 x1 x2 +1 x6 x8 -1 x5 x6 x8 +1 x7 x9 -1 x5 x7 x9 = 1;
-0 x6 +1 x6 x1 x3 +1 x6 x5 x8 +1 x6 x7 x10 = 0;
+1 x6 +1 x1 x3 -1 x6 x1 x3 +1 x5 x8 -1 x6 x5 x8 +1 x7 x10 -1 x6 x7 x10 = 1;
-0 x7 +1 x7 x1 x4 +1 x7 x5 x9 +1 x7 x6 x10 = 0;
+1 x7 +1 x1 x4 -1 x7 x1 x4 +1 x5 x9 -1 x7 x5 x9 +1 x6 x10 -1 x7 x6 x10 = 1;
-0 x8 +1 x8 x2 x3 +1 x8 x5 x6 +1 x8 x9 x10 = 0;
+1 x8 +1 x2 x3 -1 x8 x2 x3 +1 x5 x6 -1 x8 x5 x6 +1 x9 x10 -1 x8 x9 x10 = 1;
-0 x9 +1 x9 x2 x4 +1 x9 x5 x7 +1 x9 x8 x10 = 0;
+1 x9 +1 x2 x4 -1 x9 x2 x4 +1 x5 x7 -1 x9 x5 x7 +1 x8 x10 -1 x9 x8 x10 = 1;
-0 x10 +1 x10 x3 x4 +1 x10 x6 x7 +1 x10 x8 x9 = 0;
+1 x10 +1 x3 x4 -1 x10 x3 x4 +1 x6 x7 -1 x10 x6 x7 +1 x8 x9 -1 x10 x8 x9 = 1;
+1 x1 +1 x2 +1 x3 +1 x4 = 2;
+1 x1 +1 x5 +1 x6 +1 x7 = 2;
+1 x2 +1 x5 +1 x8 +1 x9 = 2;
+1 x3 +1 x6 +1 x8 +1 x10 = 2;
+1 x4 +1 x7 +1 x9 +1 x10 = 2;
