solutions/5K2L0M1.txt
c clasp version 3.3.6
c Reading from nonlinear_pb/5K2L0M1.opb
c Solving...
c Answer: 1
v -x1 -x2 x3 x4 x5 x6 -x7 -x8 x9 -x10
s SATISFIABLE
c 
c Models         : 1+
c Calls          : 1
c Time           : 0.000s (Solving: 0.00s 1st Model: 0.00s Unsat: 0.00s)
c CPU Time       : 0.000s
